p cnf 27 36
-16 5 0 
-14 8 0 
-6 25 0 
-7 26 0 
-15 10 11 0 
-9 12 0 
-2 12 0 
-11 22 0 
-7 17 0 
-8 27 0 
-11 15 0 
-5 16 0 
-21 9 0 
-8 14 0 
-23 4 0 
-10 15 0 
-24 10 0 
-4 22 0 
-9 20 0 
-20 9 0 
-9 18 0 
-27 8 0 
-18 3 9 0 
-25 6 0 
-17 7 0 
-10 24 0 
-12 2 9 0 
-3 19 0 
-13 1 0 
-19 3 0 
-22 4 11 0 
-1 13 0 
-4 23 0 
-9 21 0 
-3 18 0 
-26 7 0 
